peakDumbCharging = 3700; 
Machine = anon_enum(16); 
machineSpeed = [3700,3700,3700,3700,3700,3700,3700,3700,3700,3700,3700,3700,3700,3700,3700,3700]; 
machineLoad = [3700,3700,3700,3700,3700,3700,3700,3700,3700,3700,3700,3700,3700,3700,3700,3700]; 
Car = anon_enum(3); 
demandCar = [1840,12920,4240]; 
arrivalCar = [72,62,55]; 
departureCar = [74,67,57]; 
